presolving:
(round 1, fast)       0 del vars, 0 del conss, 0 add conss, 6897 chg bounds, 0 chg sides, 0 chg coeffs, 0 upgd conss, 0 impls, 0 clqs
   (0.1s) running MILP presolver
   (0.1s) MILP presolver found nothing
   (0.2s) probing cycle finished: starting next cycle
   (0.2s) symmetry computation started: requiring (bin +, int -, cont +), (fixed: bin -, int +, cont -)
   (0.3s) no symmetry present
presolving (2 rounds: 2 fast, 1 medium, 1 exhaustive):
 0 deleted vars, 0 deleted constraints, 0 added constraints, 6897 tightened bounds, 0 added holes, 0 changed sides, 0 changed coefficients
 7188 implications, 0 cliques
presolved problem has 7106 variables (209 bin, 0 int, 0 impl, 6897 cont) and 1069 constraints
   1069 constraints of type <linear>
Presolving Time: 0.23

 time | node  | left  |LP iter|LP it/n|mem/heur|mdpt |vars |cons |rows |cuts |sepa|confs|strbr|  dualbound   | primalbound  |  gap   | compl. 
  0.4s|     1 |     0 |   536 |     - |    58M |   0 |7106 |1070 |1069 |   0 |  0 |   1 |   0 | 1.137067e+05 |      --      |    Inf | unknown
o 0.5s|     1 |     0 |  3036 |     - |feaspump|   0 |7106 |1070 |1069 |   0 |  0 |   1 |   0 | 1.137067e+05 | 2.261202e+05 |  98.86%| unknown
  0.6s|     1 |     0 |  3297 |     - |    61M |   0 |7106 |1070 |1111 |  42 |  1 |   1 |   0 | 1.424030e+05 | 2.261202e+05 |  58.79%| unknown
i 0.8s|     1 |     0 |  4218 |     - |  oneopt|   0 |7106 |1070 |1111 |  42 |  1 |   1 |   0 | 1.424030e+05 | 2.233787e+05 |  56.86%| unknown
  1.0s|     1 |     0 |  4514 |     - |    62M |   0 |7106 |1070 |1135 |  66 |  2 |   1 |   0 | 1.533556e+05 | 2.233787e+05 |  45.66%| unknown
  1.1s|     1 |     0 |  4797 |     - |    63M |   0 |7106 |1070 |1161 |  92 |  3 |   1 |   0 | 1.609588e+05 | 2.233787e+05 |  38.78%| unknown
  1.2s|     1 |     0 |  4993 |     - |    63M |   0 |7106 |1070 |1178 | 109 |  4 |   1 |   0 | 1.637505e+05 | 2.233787e+05 |  36.41%| unknown
  1.3s|     1 |     0 |  5146 |     - |    63M |   0 |7106 |1070 |1189 | 120 |  5 |   1 |   0 | 1.676662e+05 | 2.233787e+05 |  33.23%| unknown
  1.5s|     1 |     0 |  5399 |     - |    63M |   0 |7106 |1070 |1219 | 150 |  6 |   1 |   0 | 1.695127e+05 | 2.233787e+05 |  31.78%| unknown
  1.7s|     1 |     0 |  5900 |     - |    65M |   0 |7106 |1070 |1252 | 183 |  7 |   1 |   0 | 1.719382e+05 | 2.233787e+05 |  29.92%| unknown
  1.9s|     1 |     0 |  6259 |     - |    65M |   0 |7106 |1070 |1278 | 209 |  8 |   1 |   0 | 1.732534e+05 | 2.233787e+05 |  28.93%| unknown
  2.1s|     1 |     0 |  6546 |     - |    66M |   0 |7106 |1070 |1292 | 223 |  9 |   1 |   0 | 1.743572e+05 | 2.233787e+05 |  28.12%| unknown
  2.3s|     1 |     0 |  6928 |     - |    66M |   0 |7106 |1070 |1317 | 248 | 10 |   1 |   0 | 1.753805e+05 | 2.233787e+05 |  27.37%| unknown
  2.7s|     1 |     0 |  7703 |     - |    67M |   0 |7106 |1070 |1342 | 275 | 11 |   1 |   0 | 1.766409e+05 | 2.233787e+05 |  26.46%| unknown
  2.9s|     1 |     0 |  8211 |     - |    67M |   0 |7106 |1070 |1363 | 296 | 12 |   1 |   0 | 1.774013e+05 | 2.233787e+05 |  25.92%| unknown
 time | node  | left  |LP iter|LP it/n|mem/heur|mdpt |vars |cons |rows |cuts |sepa|confs|strbr|  dualbound   | primalbound  |  gap   | compl. 
  3.1s|     1 |     0 |  8434 |     - |    67M |   0 |7106 |1070 |1366 | 299 | 13 |   1 |   0 | 1.775175e+05 | 2.233787e+05 |  25.83%| unknown
  3.5s|     1 |     0 |  9380 |     - |    68M |   0 |7106 |1070 |1390 | 323 | 14 |   1 |   0 | 1.785729e+05 | 2.233787e+05 |  25.09%| unknown
  3.9s|     1 |     0 |  9986 |     - |    68M |   0 |7106 |1070 |1414 | 347 | 15 |   1 |   0 | 1.789526e+05 | 2.233787e+05 |  24.83%| unknown
  4.2s|     1 |     0 | 10553 |     - |    68M |   0 |7106 |1070 |1427 | 360 | 16 |   1 |   0 | 1.792071e+05 | 2.233787e+05 |  24.65%| unknown
  4.5s|     1 |     0 | 10990 |     - |    69M |   0 |7106 |1070 |1421 | 380 | 17 |   1 |   0 | 1.794302e+05 | 2.233787e+05 |  24.49%| unknown
  4.9s|     1 |     0 | 11510 |     - |    69M |   0 |7106 |1070 |1438 | 397 | 18 |   1 |   0 | 1.796411e+05 | 2.233787e+05 |  24.35%| unknown
  5.2s|     1 |     0 | 11953 |     - |    70M |   0 |7106 |1070 |1454 | 413 | 19 |   1 |   0 | 1.798016e+05 | 2.233787e+05 |  24.24%| unknown
  5.6s|     1 |     0 | 12246 |     - |    70M |   0 |7106 |1070 |1461 | 420 | 20 |   1 |   0 | 1.799155e+05 | 2.233787e+05 |  24.16%| unknown
  5.9s|     1 |     0 | 12668 |     - |    70M |   0 |7106 |1070 |1482 | 441 | 21 |   1 |   0 | 1.800353e+05 | 2.233787e+05 |  24.07%| unknown
  6.2s|     1 |     0 | 13030 |     - |    71M |   0 |7106 |1070 |1496 | 455 | 22 |   1 |   0 | 1.801140e+05 | 2.233787e+05 |  24.02%| unknown
  6.5s|     1 |     0 | 13259 |     - |    71M |   0 |7106 |1070 |1470 | 469 | 23 |   1 |   0 | 1.801605e+05 | 2.233787e+05 |  23.99%| unknown
  6.8s|     1 |     0 | 13515 |     - |    71M |   0 |7106 |1070 |1478 | 477 | 24 |   1 |   0 | 1.801921e+05 | 2.233787e+05 |  23.97%| unknown
  7.3s|     1 |     0 | 14157 |     - |    72M |   0 |7106 |1070 |1501 | 500 | 25 |   1 |   0 | 1.803139e+05 | 2.233787e+05 |  23.88%| unknown
  7.7s|     1 |     0 | 14837 |     - |    72M |   0 |7106 |1070 |1514 | 513 | 26 |   1 |   0 | 1.803931e+05 | 2.233787e+05 |  23.83%| unknown
  8.1s|     1 |     0 | 15153 |     - |    72M |   0 |7106 |1070 |1529 | 528 | 27 |   1 |   0 | 1.804131e+05 | 2.233787e+05 |  23.82%| unknown
 time | node  | left  |LP iter|LP it/n|mem/heur|mdpt |vars |cons |rows |cuts |sepa|confs|strbr|  dualbound   | primalbound  |  gap   | compl. 
  8.4s|     1 |     0 | 15332 |     - |    72M |   0 |7106 |1070 |1534 | 533 | 28 |   1 |   0 | 1.804204e+05 | 2.233787e+05 |  23.81%| unknown
  8.7s|     1 |     0 | 15795 |     - |    72M |   0 |7106 |1070 |1503 | 549 | 29 |   1 |   0 | 1.804480e+05 | 2.233787e+05 |  23.79%| unknown
  9.1s|     1 |     0 | 16218 |     - |    72M |   0 |7106 |1070 |1514 | 560 | 30 |   1 |   0 | 1.804757e+05 | 2.233787e+05 |  23.77%| unknown
  9.5s|     1 |     0 | 16801 |     - |    72M |   0 |7106 |1070 |1538 | 584 | 31 |   1 |   0 | 1.805037e+05 | 2.233787e+05 |  23.75%| unknown
  9.9s|     1 |     0 | 17356 |     - |    72M |   0 |7106 |1070 |1542 | 588 | 32 |   1 |   0 | 1.805115e+05 | 2.233787e+05 |  23.75%| unknown
 10.1s|     1 |     0 | 17551 |     - |    72M |   0 |7106 |1070 |1545 | 591 | 33 |   1 |   0 | 1.805124e+05 | 2.233787e+05 |  23.75%| unknown
 10.4s|     1 |     0 | 17958 |     - |    72M |   0 |7106 |1070 |1551 | 597 | 34 |   1 |   0 | 1.805162e+05 | 2.233787e+05 |  23.74%| unknown
 10.6s|     1 |     0 | 18117 |     - |    72M |   0 |7106 |1070 |1500 | 601 | 35 |   1 |   0 | 1.805172e+05 | 2.233787e+05 |  23.74%| unknown
 10.9s|     1 |     0 | 18184 |     - |    72M |   0 |7106 |1070 |1509 | 610 | 36 |   1 |   0 | 1.805178e+05 | 2.233787e+05 |  23.74%| unknown
 11.1s|     1 |     0 | 18395 |     - |    72M |   0 |7106 |1070 |1513 | 614 | 37 |   1 |   0 | 1.805189e+05 | 2.233787e+05 |  23.74%| unknown
 11.1s|     1 |     0 | 18431 |     - |    72M |   0 |7106 |1070 |1514 | 615 | 38 |   1 |   0 | 1.805194e+05 | 2.233787e+05 |  23.74%| unknown
 11.2s|     1 |     0 | 18549 |     - |    72M |   0 |7106 |1070 |1515 | 616 | 39 |   1 |   0 | 1.805195e+05 | 2.233787e+05 |  23.74%| unknown
 11.3s|     1 |     0 | 18588 |     - |    72M |   0 |7106 |1070 |1517 | 618 | 40 |   1 |   0 | 1.805197e+05 | 2.233787e+05 |  23.74%| unknown
L27.2s|     1 |     0 | 34945 |     - |    rens|   0 |7106 |1070 |1517 | 618 | 41 |   2 |   0 | 1.805197e+05 | 1.829704e+05 |   1.36%| unknown
 27.3s|     1 |     0 | 34945 |     - |    73M |   0 |7106 |1070 |1517 | 618 | 41 |   2 |   0 | 1.805197e+05 | 1.829704e+05 |   1.36%| unknown
 time | node  | left  |LP iter|LP it/n|mem/heur|mdpt |vars |cons |rows |cuts |sepa|confs|strbr|  dualbound   | primalbound  |  gap   | compl. 
 27.3s|     1 |     0 | 34945 |     - |    74M |   0 |7106 |1070 |1517 | 618 | 41 |   2 |   0 | 1.805197e+05 | 1.829704e+05 |   1.36%| unknown
 27.4s|     1 |     0 | 35053 |     - |    74M |   0 |7106 |1070 |1519 | 620 | 42 |   2 |   0 | 1.805199e+05 | 1.829704e+05 |   1.36%| unknown
 27.5s|     1 |     0 | 35083 |     - |    74M |   0 |7106 |1070 |1520 | 621 | 43 |   2 |   0 | 1.805200e+05 | 1.829704e+05 |   1.36%| unknown
 27.5s|     1 |     0 | 35083 |     - |    74M |   0 |7106 |1062 |1520 | 621 | 43 |   2 |   0 | 1.805200e+05 | 1.829704e+05 |   1.36%| unknown
 27.5s|     1 |     0 | 35109 |     - |    74M |   0 |7106 |1062 |1521 | 622 | 44 |   2 |   0 | 1.805201e+05 | 1.829704e+05 |   1.36%| unknown
 27.6s|     1 |     0 | 35345 |     - |    74M |   0 |7106 |1062 |1523 | 624 | 45 |   2 |   0 | 1.805205e+05 | 1.829704e+05 |   1.36%| unknown
 45.5s|     1 |     2 | 35345 |     - |    74M |   0 |7106 |1062 |1523 | 624 | 45 |   2 |  54 | 1.807769e+05 | 1.829704e+05 |   1.21%| unknown
(run 1, node 1) restarting after 8 global fixings of integer variables

(restart) converted 442 cuts from the global cut pool into linear constraints

presolving:
(round 1, fast)       272 del vars, 0 del conss, 0 add conss, 0 chg bounds, 0 chg sides, 0 chg coeffs, 0 upgd conss, 7188 impls, 0 clqs
(round 2, exhaustive) 272 del vars, 0 del conss, 0 add conss, 0 chg bounds, 0 chg sides, 0 chg coeffs, 8 upgd conss, 7188 impls, 0 clqs
presolving (3 rounds: 3 fast, 2 medium, 2 exhaustive):
 272 deleted vars, 0 deleted constraints, 0 added constraints, 0 tightened bounds, 0 added holes, 0 changed sides, 0 changed coefficients
 7188 implications, 0 cliques
presolved problem has 6834 variables (201 bin, 0 int, 0 impl, 6633 cont) and 1504 constraints
   1495 constraints of type <linear>
      9 constraints of type <logicor>
Presolving Time: 0.26
transformed 3/3 original solutions to the transformed problem space

 time | node  | left  |LP iter|LP it/n|mem/heur|mdpt |vars |cons |rows |cuts |sepa|confs|strbr|  dualbound   | primalbound  |  gap   | compl. 
 48.3s|     1 |     0 | 45500 |     - |    74M |   0 |6834 |1504 |1503 |   0 |  0 |   2 |  54 | 1.807769e+05 | 1.829704e+05 |   1.21%| unknown
 48.9s|     1 |     0 | 46940 |     - |    75M |   0 |6834 |1504 |1528 |  25 |  1 |   2 |  54 | 1.807769e+05 | 1.829704e+05 |   1.21%| unknown
 49.2s|     1 |     0 | 47482 |     - |    75M |   0 |6834 |1504 |1532 |  29 |  2 |   2 |  54 | 1.807769e+05 | 1.829704e+05 |   1.21%| unknown
 49.5s|     1 |     0 | 47636 |     - |    75M |   0 |6834 |1504 |1543 |  40 |  3 |   2 |  54 | 1.807769e+05 | 1.829704e+05 |   1.21%| unknown
 49.7s|     1 |     0 | 47902 |     - |    75M |   0 |6834 |1504 |1547 |  44 |  4 |   2 |  54 | 1.807769e+05 | 1.829704e+05 |   1.21%| unknown
 50.0s|     1 |     0 | 48128 |     - |    75M |   0 |6834 |1504 |1556 |  53 |  5 |   2 |  54 | 1.807769e+05 | 1.829704e+05 |   1.21%| unknown
 50.3s|     1 |     0 | 48546 |     - |    76M |   0 |6834 |1504 |1564 |  61 |  6 |   2 |  54 | 1.807769e+05 | 1.829704e+05 |   1.21%| unknown
 50.7s|     1 |     0 | 48930 |     - |    76M |   0 |6834 |1504 |1573 |  70 |  7 |   2 |  54 | 1.807769e+05 | 1.829704e+05 |   1.21%| unknown
 50.8s|     1 |     0 | 49111 |     - |    76M |   0 |6834 |1504 |1575 |  72 |  8 |   2 |  54 | 1.807769e+05 | 1.829704e+05 |   1.21%| unknown
 51.1s|     1 |     0 | 49399 |     - |    76M |   0 |6834 |1504 |1579 |  76 |  9 |   2 |  54 | 1.807769e+05 | 1.829704e+05 |   1.21%| unknown
 51.2s|     1 |     0 | 49525 |     - |    76M |   0 |6834 |1504 |1582 |  79 | 10 |   2 |  54 | 1.807769e+05 | 1.829704e+05 |   1.21%| unknown
 57.3s|     1 |     2 | 49636 |     - |    78M |   0 |6834 |1504 |1582 |  79 | 11 |4908 |  73 | 1.808357e+05 | 1.829704e+05 |   1.18%| unknown
*92.7s|    70 |    17 | 72257 | 558.4 |    LP  |  13 |6834 |1507 |1377 | 187 | 11 |4943 | 398 | 1.814579e+05 | 1.829610e+05 |   0.83%|  22.95%
 95.2s|   100 |     3 | 79267 | 461.0 |    89M |  13 |6834 |1507 |1347 | 209 |  0 |4950 | 423 | 1.814579e+05 | 1.829610e+05 |   0.83%|  63.43%

SCIP Status        : problem is solved [optimal solution found]
Solving Time (sec) : 103.06
Solving Nodes      : 147 (total of 148 nodes in 2 runs)
Primal Bound       : +1.82960964422892e+05 (50 solutions)
Dual Bound         : +1.82960964422892e+05
Gap                : 0.00 %
Solve Status: optimal
Solve Time: 103.07 seconds
